NAME : pr144.84253.tour
COMMENT : Cost = 28119_84253
COMMENT : Found by LKH [Keld Helsgaun] Thu Nov 16 14:48:51 2017
TYPE : TOUR
DIMENSION : 146
TOUR_SECTION
1
26
35
36
46
47
48
59
60
61
62
63
64
65
66
67
68
69
70
77
78
76
75
74
73
92
91
72
71
45
44
43
14
13
12
11
10
9
7
8
19
20
18
17
16
15
42
41
21
40
39
38
37
23
22
6
5
4
3
145
25
24
89
90
99
98
97
96
95
94
93
116
117
118
119
120
121
122
123
124
125
126
127
128
129
130
100
101
102
103
88
87
79
80
81
82
30
29
28
2
146
34
33
32
31
49
50
51
52
53
54
55
111
112
113
114
144
143
142
141
140
139
138
137
136
135
134
133
132
131
115
104
105
106
107
108
109
110
86
85
84
83
56
57
58
27
-1
EOF
